secret key:[8472739903896683899190694453394418165631554827393057884023912161418177952765956585982175849810819277974230161520636254864632364118903610586819918562493735, 2992447796707429084063909427372363955510866593754258932358810390759333965154387592923445386966086431698587908907817870932930881101550911995149568778530500]